c description: Random 3-CNF over 22 variables and 94 clauses
c generator: CNFgen (0.9.2)
c copyright: (C) 2012-2022 Massimo Lauria <massimo.lauria@uniroma1.it>
c url: https://massimolauria.net/cnfgen
c command line: cnfgen --output CNF_4.28/22_bit_94_504.cnf randkcnf 3 22 94
c
p cnf 22 94
12 15 20 0
-3 -14 -17 0
-17 20 -22 0
-1 8 10 0
-2 -13 -16 0
3 6 -22 0
4 17 -18 0
3 9 -16 0
6 12 -14 0
11 17 -20 0
10 15 16 0
1 13 19 0
-1 -15 22 0
-2 8 -11 0
-5 -10 -18 0
-5 7 -16 0
-4 -13 -21 0
-1 -4 -22 0
-8 -14 19 0
-3 -16 19 0
-13 -19 -20 0
12 16 20 0
-1 5 22 0
-6 -21 22 0
-16 21 -22 0
-8 9 10 0
7 -11 -22 0
-6 9 -17 0
-18 20 21 0
11 12 -16 0
-8 12 16 0
8 -9 -12 0
-6 15 17 0
-2 -5 20 0
1 -16 -21 0
-1 -13 -22 0
-6 -9 -13 0
-10 -12 20 0
-3 -6 -17 0
-2 -10 -13 0
-1 -10 -22 0
-6 -10 -21 0
-4 5 -17 0
-12 15 -21 0
3 5 -20 0
4 11 -12 0
7 15 19 0
1 12 -14 0
-5 16 17 0
2 7 15 0
-1 -11 -13 0
-5 -15 17 0
1 8 -12 0
-8 10 13 0
6 -7 16 0
-3 -4 19 0
2 5 -6 0
3 5 16 0
-3 -8 -21 0
-6 7 8 0
15 18 21 0
-17 18 22 0
-3 -18 19 0
-4 18 -21 0
-6 -18 20 0
-7 8 -14 0
-4 -14 -15 0
-11 16 -20 0
3 14 22 0
1 15 -21 0
11 21 -22 0
5 20 22 0
-10 15 17 0
-5 13 -15 0
-5 -9 -22 0
6 -9 -12 0
-1 -9 18 0
3 8 -10 0
-17 -19 20 0
3 -11 22 0
-7 14 20 0
5 14 20 0
1 -6 -9 0
11 -18 -22 0
-11 -14 19 0
-6 20 -21 0
-1 4 -16 0
12 20 -22 0
-7 10 14 0
16 -18 -22 0
-9 -12 -14 0
2 9 15 0
5 -7 -21 0
6 7 -9 0
